Argumentos: 
./solver.release -i 3 -t 86400 -a 7 -h 86400 -w Testes/Marcos-i3 -m modelo.mod -o modelo.mod 
Seed: 1622589650
hidden-TXT/Sc-n035w4.txt
hidden-TXT/H0-n035w4-0.txt
hidden-TXT/WD-n035w4-4.txt hidden-TXT/WD-n035w4-2.txt hidden-TXT/WD-n035w4-1.txt hidden-TXT/WD-n035w4-6.txt 
Reading model section from modelo.mod...
285 lines were read
Reading data section from Testes/Marcos-i3/3.dat...
7248 lines were read
Generating obj...
Generating H1turnoDia...
Generating H2coberturaMinima...
Generating H3AsucessaoTurnos...
Generating H3BsucessaoTurnos...
Generating H4qualificacao...
Generating S1coberturaOtima...
Generating S2aux1...
Generating S2aux2...
Generating S2aux3...
Generating S2aux7...
Generating S2a...
Generating S2S3aux4...
Generating S2S3aux5...
Generating S2S3aux6...
Generating S2S3aux8...
Generating S2c...
Generating S2chist...
Generating S2d...
Generating S2dHist...
Generating S2b...
Generating S2bHist...
Generating auxS5...
Generating S6a...
Generating S6b...
Generating auxS7...
Generating S7...
Model has been successfully generated
Writing problem data to `Testes/Marcos-i3/3.lp'...
2991663 lines were written
CPX0000  Tried aggregator 2 times.
CPX0000  Aggregator has done 8639 substitutions...
CPX0000  MIP Presolve eliminated 88613 rows and 92325 columns.
CPX0000  MIP Presolve modified 1964 coefficients.
CPX0000  Aggregator did 8639 substitutions.
CPX0000  Reduced MIP has 1008843 rows, 96184 columns, and 3391212 nonzeros.
CPX0000  Reduced MIP has 95944 binaries, 240 generals, 0 SOSs, and 0 indicators.
CPX0000  Presolve time = 13.83 sec. (10465.18 ticks)
CPX0000  Probing time = 0.33 sec. (66.43 ticks)
CPX0000  Tried aggregator 1 time.
CPX0000  MIP Presolve eliminated 15 rows and 15 columns.
CPX0000  MIP Presolve modified 109 coefficients.
CPX0000  Reduced MIP has 1008828 rows, 96169 columns, and 3391120 nonzeros.
CPX0000  Reduced MIP has 95943 binaries, 226 generals, 0 SOSs, and 0 indicators.
CPX0000  Presolve time = 8.95 sec. (5640.79 ticks)
CPX0000  Probing time = 0.28 sec. (66.20 ticks)
CPX0000  Clique table members: 794307.
CPX0000  MIP emphasis: balance optimality and feasibility.
CPX0000  MIP search method: dynamic search.
CPX0000  Parallel mode: none, using 1 thread.
CPX0000  Root relaxation solution time = 42878.92 sec. (9811675.76 ticks)
CPX0000
CPX0000          Nodes                                         Cuts/
CPX0000     Node  Left     Objective  IInf  Best Integer    Best Bound    ItCnt     Gap
CPX0000
CPX0000        0     0      160.3508 14213                    160.3508  5782153
CPX0000
CPX0000  GUB cover cuts applied:  140
CPX0000  Clique cuts applied:  80
CPX0000  Cover cuts applied:  72
CPX0000  Implied bound cuts applied:  1
CPX0000  Flow cuts applied:  7
CPX0000  Mixed integer rounding cuts applied:  209
CPX0000  Zero-half cuts applied:  250
CPX0000  Lift and project cuts applied:  1
CPX0000  Gomory fractional cuts applied:  5
CPX0000
CPX0000  Root node processing (before b&c):
CPX0000    Real time             = 86401.42 sec. (13027966.36 ticks)
CPX0000  Sequential b&c:
CPX0000    Real time             =    0.00 sec. (0.00 ticks)
CPX0000                            ------------
CPX0000  Total (root+branch&cut) = 86401.42 sec. (13027966.36 ticks)
H2 understaffing: 346
H3 shiftTypeSuccessions: 9
S1 optimalCoverage: 810
S2a consecutiveShift: 12270 = (9,809 )
S2b consecutiveWorkingDays: 25440 = ( 0,848 )
S3 consecutiveDaysOff: 180 = ( 6,0 )
S4 preferences: 480
S5 completeWeekend: 0
S6 totalAssignments: 9100
S7 totalWorkingWeekeends: 2520
 

Cost Solution: 405800

File "Solucao/n035w4-0-4-2-1-6_w0.txt", unknown skill: HN_0 for nurse HN_0 on day Monday for shift type Early

     Syntax:
     java -jar validator.jar --sce scenario --his history --weeks week_1...week_n --sols sol_1...sol_n [--penaltyonly] [--out outFile] [--verbose]

          scenario           the file containing the scenario
          history            the file containing the initial history
          week_1...week_n    the files containing the week data
          sol_1...sol_n      the files containing the solutions for the weeks
          --penaltyonly      option to print only the penalty value
          --out outfile      option: print output to outfile
          --verbose          option: prints a detailed report of violations per nurse
